TYPE : Vertex Cover
DIMENSION: 20
EDGE_DATA_SECTION:
0 2
0 11
0 16
1 6
1 16
1 19
2 19
3 9
3 17
3 19
4 6
4 9
4 11
4 16
4 18
5 9
5 15
6 13
6 15
6 19
7 13
8 9
8 10
8 11
8 13
8 16
9 12
9 15
10 14
10 18
11 12
11 19
12 14
13 18
-1
VERTEX_DEGREE:
3.0 3.0 2.0 3.0 5.0 2.0 5.0 1.0 5.0 6.0 3.0 5.0 3.0 4.0 2.0 3.0 4.0 1.0 3.0 5.0
VERTEX_COVER:
0 1 3 4 8 9 10 12 13 15 19
EOF
